problems/csplib-prob056/sonet-models/noch/O2/lingeling/model_8_1-s3ring05-solution000001.eprime-solution
language ESSENCE' 1.0

letting network_ExplicitWithRepetitionR4_Flag be 7
letting network_ExplicitWithRepetitionR4_Values_ExplicitVarSizeWithFlags_Flags be
        [[false, false, false, false, false; int(1..5)], [false, false, false, false, false; int(1..5)],
         [true, true, false, false, false; int(1..5)], [true, true, true, true, false; int(1..5)],
         [true, true, true, true, true; int(1..5)], [true, true, true, true, true; int(1..5)],
         [true, true, true, true, true; int(1..5)], [false, false, false, false, false; int(1..5)],
         [false, false, false, false, false; int(1..5)], [false, false, false, false, false; int(1..5)],
         [false, false, false, false, false; int(1..5)], [false, false, false, false, false; int(1..5)],
         [false, false, false, false, false; int(1..5)], [false, false, false, false, false; int(1..5)],
         [false, false, false, false, false; int(1..5)], [false, false, false, false, false; int(1..5)],
         [false, false, false, false, false; int(1..5)], [false, false, false, false, false; int(1..5)],
         [false, false, false, false, false; int(1..5)], [false, false, false, false, false; int(1..5)],
         [false, false, false, false, false; int(1..5)], [false, false, false, false, false; int(1..5)],
         [false, false, false, false, false; int(1..5)], [false, false, false, false, false; int(1..5)],
         [false, false, false, false, false; int(1..5)], [false, false, false, false, false; int(1..5)],
         [false, false, false, false, false; int(1..5)], [false, false, false, false, false; int(1..5)],
         [false, false, false, false, false; int(1..5)], [false, false, false, false, false; int(1..5)],
         [false, false, false, false, false; int(1..5)], [false, false, false, false, false; int(1..5)],
         [false, false, false, false, false; int(1..5)], [false, false, false, false, false; int(1..5)],
         [false, false, false, false, false; int(1..5)], [false, false, false, false, false; int(1..5)],
         [false, false, false, false, false; int(1..5)], [false, false, false, false, false; int(1..5)],
         [false, false, false, false, false; int(1..5)], [false, false, false, false, false; int(1..5)],
         [false, false, false, false, false; int(1..5)], [false, false, false, false, false; int(1..5)],
         [false, false, false, false, false; int(1..5)], [false, false, false, false, false; int(1..5)],
         [false, false, false, false, false; int(1..5)], [false, false, false, false, false; int(1..5)],
         [false, false, false, false, false; int(1..5)], [false, false, false, false, false; int(1..5)],
         [false, false, false, false, false; int(1..5)]; int(1..49)]
letting network_ExplicitWithRepetitionR4_Values_ExplicitVarSizeWithFlags_Values be
        [[1, 1, 1, 1, 1; int(1..5)], [1, 1, 1, 1, 1; int(1..5)], [1, 11, 1, 1, 1; int(1..5)],
         [4, 5, 8, 10, 1; int(1..5)], [1, 2, 3, 4, 6; int(1..5)], [2, 5, 10, 12, 13; int(1..5)],
         [3, 6, 8, 9, 11; int(1..5)], [1, 1, 1, 1, 1; int(1..5)], [1, 1, 1, 1, 1; int(1..5)],
         [1, 1, 1, 1, 1; int(1..5)], [1, 1, 1, 1, 1; int(1..5)], [1, 1, 1, 1, 1; int(1..5)], [1, 1, 1, 1, 1; int(1..5)],
         [1, 1, 1, 1, 1; int(1..5)], [1, 1, 1, 1, 1; int(1..5)], [1, 1, 1, 1, 1; int(1..5)], [1, 1, 1, 1, 1; int(1..5)],
         [1, 1, 1, 1, 1; int(1..5)], [1, 1, 1, 1, 1; int(1..5)], [1, 1, 1, 1, 1; int(1..5)], [1, 1, 1, 1, 1; int(1..5)],
         [1, 1, 1, 1, 1; int(1..5)], [1, 1, 1, 1, 1; int(1..5)], [1, 1, 1, 1, 1; int(1..5)], [1, 1, 1, 1, 1; int(1..5)],
         [1, 1, 1, 1, 1; int(1..5)], [1, 1, 1, 1, 1; int(1..5)], [1, 1, 1, 1, 1; int(1..5)], [1, 1, 1, 1, 1; int(1..5)],
         [1, 1, 1, 1, 1; int(1..5)], [1, 1, 1, 1, 1; int(1..5)], [1, 1, 1, 1, 1; int(1..5)], [1, 1, 1, 1, 1; int(1..5)],
         [1, 1, 1, 1, 1; int(1..5)], [1, 1, 1, 1, 1; int(1..5)], [1, 1, 1, 1, 1; int(1..5)], [1, 1, 1, 1, 1; int(1..5)],
         [1, 1, 1, 1, 1; int(1..5)], [1, 1, 1, 1, 1; int(1..5)], [1, 1, 1, 1, 1; int(1..5)], [1, 1, 1, 1, 1; int(1..5)],
         [1, 1, 1, 1, 1; int(1..5)], [1, 1, 1, 1, 1; int(1..5)], [1, 1, 1, 1, 1; int(1..5)], [1, 1, 1, 1, 1; int(1..5)],
         [1, 1, 1, 1, 1; int(1..5)], [1, 1, 1, 1, 1; int(1..5)], [1, 1, 1, 1, 1; int(1..5)],
         [1, 1, 1, 1, 1; int(1..5)]; int(1..49)]
