problems/csplib-prob056/sonet-models/noch/O2/lingeling/model_8_1-s3ring05-solution000001.solution
language Essence 1.3

letting network be mset({}, {}, {1, 2, 3, 4, 6}, {1, 11}, {2, 5, 10, 12, 13}, {3, 6, 8, 9, 11}, {4, 5, 8, 10})
$ Here is a simple "visualisation" for the value above.
$ 
$ 
$  1  2  3  4  6
$  1 11
$  2  5 10 12 13
$  3  6  8  9 11
$  4  5  8 10

